\ File written by Highs .lp filereader
minimize
 obj: +1 x1 +8 x2 +12 x3 +4 x4 +1 x5 +1 x6 +2 x7 +8 x8 +6 x9 +4 x10 +4 x11 +1 x12 +12 x13 +8 x14 +8 x15 +12 x16 +1 x17 +4 x18 +4 x19 +1 x20 +6 x21 +4 x22 +4 x23 +6 x24 +6 x25 +4 x26 +4 x27 +6 x28 +1 x29 +4 x30 +4 x31 +1 x32 +12 x33 +8 x34 +6 x35 +4 x36 +8 x37 +12 x38 +6 x39 +4 x40 +8 x41 +12 x42 +4 x43 +6 x44 +2 x45 +8 x46 +0 x47 +0 x48 +0 x49 +0 x50 +0 x51 +0 x52 +0 x53 +0 x54 +0 x55 
st
 con1: +1 x1 +8 x2 +12 x3 +4 x4 +2 x7 +8 x8 +6 x9 +4 x19 +1 x20 +6 x21 +4 x22 = +1
 con2: +8 x2 +24 x3 +12 x4 +4 x5 +8 x8 +12 x9 +12 x10 +4 x19 +12 x21 +4 x22 +12 x23 +12 x24 +4 x31 +24 x33 +8 x34 +12 x35 +4 x36 +24 x37 +24 x38 = +4
 con3: +12 x3 +12 x4 +6 x5 +6 x6 +6 x9 +12 x10 +12 x13 +24 x15 +12 x16 +6 x17 +12 x18 +6 x21 +12 x23 +6 x24 +6 x25 +12 x27 +6 x28 +6 x29 +12 x30 +12 x33 +6 x35 +24 x37 +12 x38 +6 x39 +24 x41 +12 x42 +12 x43 +6 x44 +12 x45 +24 x46 = +6
 con4: +2 x7 +8 x8 +6 x9 +4 x10 +1 x20 +4 x22 +6 x24 +1 x32 +8 x34 +4 x36 +12 x38 = +1
 con5: +2 x1 +8 x2 +12 x3 +2 x7 +8 x8 +8 x11 +2 x12 +12 x13 +8 x14 +8 x15 +12 x16 +8 x19 +2 x20 +12 x25 +8 x26 = +2
 con6: +8 x2 +24 x3 +12 x4 +8 x8 +12 x9 +4 x11 +24 x13 +8 x14 +24 x15 +24 x16 +4 x17 +12 x18 +4 x19 +12 x21 +4 x22 +12 x25 +4 x26 +12 x27 +12 x28 = +4
 con7: +2 x7 +8 x8 +6 x9 +1 x12 +8 x14 +12 x16 +4 x18 +1 x20 +4 x22 +4 x26 +6 x28 = +1
 con8: +4 x6 +8 x8 +12 x9 +12 x10 +8 x14 +24 x16 +12 x18 +4 x22 +12 x24 +4 x26 +12 x28 +12 x30 +8 x34 +4 x36 +24 x38 +4 x40 +24 x42 +12 x44 +24 x46 = +4
 con9: +1 x1 +8 x2 +2 x7 +6 x21 +4 x22 +4 x23 +6 x24 +4 x31 +1 x32 +12 x33 +8 x34 = +1
 con10: +1 x1 +8 x2 +2 x7 +4 x11 +1 x12 +12 x13 +8 x14 +6 x21 +4 x22 +4 x27 +6 x28 = +1
 con11: +8 x2 +4 x11 +24 x13 +8 x14 +12 x21 +4 x22 +12 x23 +12 x24 +12 x27 +12 x28 +4 x29 +12 x30 +4 x31 +24 x33 +8 x34 +12 x39 +4 x40 +24 x41 +24 x42 = +4
 con12: +2 x7 +1 x12 +8 x14 +4 x22 +6 x24 +6 x28 +4 x30 +1 x32 +8 x34 +4 x40 +12 x42 = +1
 con13: +2 x1 +8 x2 +12 x3 +2 x7 +8 x8 +8 x19 +2 x20 +8 x31 +2 x32 +12 x33 +8 x34 +12 x35 +8 x36 +8 x37 +12 x38 = +2
 con14: +2 x1 +8 x2 +2 x7 +8 x11 +2 x12 +12 x13 +8 x14 +8 x31 +2 x32 +12 x33 +8 x34 +12 x39 +8 x40 +8 x41 +12 x42 = +2
 con15: +1 x1 +4 x11 +1 x12 +4 x19 +1 x20 +6 x25 +4 x26 +4 x31 +1 x32 +6 x35 +4 x36 +6 x39 +4 x40 +4 x43 +6 x44 = +1
 con16: +8 x2 +24 x3 +8 x8 +8 x11 +24 x13 +8 x14 +24 x15 +24 x16 +8 x19 +24 x25 +8 x26 +8 x31 +24 x33 +8 x34 +24 x35 +8 x36 +24 x37 +24 x38 +24 x39 +8 x40 +24 x41 +24 x42 +24 x43 +24 x44 +8 x45 +24 x46 = +8
 con17: +2 x7 +8 x8 +2 x12 +8 x14 +12 x16 +2 x20 +8 x26 +2 x32 +8 x34 +8 x36 +12 x38 +8 x40 +12 x42 +12 x44 +8 x46 = +2
 con18: +1 x3 -1 x35 -1 x47 = +0
 con19: +1 x4 -1 x37 -1 x48 = +0
 con20: +1 x8 -1 x36 -1 x49 = +0
 con21: +1 x9 -1 x38 -1 x50 = +0
 con22: +1 x13 -1 x39 -1 x51 = +0
 con23: +1 x16 -1 x44 -1 x52 = +0
 con24: +1 x22 -1 x34 -1 x53 = +0
 con25: +1 x27 -1 x41 -1 x54 = +0
 con26: +1 x28 -1 x42 -1 x55 = +0
bounds
 +0 <= x1 <= +1
 +0 <= x2 <= +0
 +0 <= x3 <= +1
 +0 <= x4 <= +1
 +0 <= x5 <= +0
 +0 <= x6 <= +0
 +0 <= x7 <= +0
 +0 <= x8 <= +0
 +0 <= x9 <= +1
 +0 <= x10 <= +0
 +0 <= x11 <= +0
 +0 <= x12 <= +0
 +0 <= x13 <= +1
 +0 <= x14 <= +0
 +0 <= x15 <= +0
 +0 <= x16 <= +1
 +0 <= x17 <= +0
 +0 <= x18 <= +0
 +0 <= x19 <= +0
 +0 <= x20 <= +0
 +0 <= x21 <= +0
 +0 <= x22 <= +1
 +0 <= x23 <= +1
 +0 <= x24 <= +0
 +0 <= x25 <= +1
 +0 <= x26 <= +0
 +0 <= x27 <= +1
 +0 <= x28 <= +1
 +0 <= x29 <= +0
 +0 <= x30 <= +0
 +0 <= x31 <= +0
 +0 <= x32 <= +0
 +0 <= x33 <= +0
 +0 <= x34 <= +1
 +0 <= x35 <= +1
 +0 <= x36 <= +0
 +0 <= x37 <= +1
 +0 <= x38 <= +1
 +0 <= x39 <= +1
 +0 <= x40 <= +0
 +0 <= x41 <= +1
 +0 <= x42 <= +1
 +0 <= x43 <= +0
 +0 <= x44 <= +1
 +0 <= x45 <= +0
 +0 <= x46 <= +0
 +0 <= x47 <= +0
 +0 <= x48 <= +0
 +0 <= x49 <= +0
 +0 <= x50 <= +0
 +0 <= x51 <= +0
 +0 <= x52 <= +0
 +0 <= x53 <= +0
 +0 <= x54 <= +0
 +0 <= x55 <= +0
binary
general
semi
end
